Maximize
  0.00268995138675361 Z_404_0_0 + 0.00382768826340626 Z_404_0_1
   + 0.8829711114051018 Z_404_0_2 + 0.00495059663377057 Z_404_0_3
   + 0.00211570669383642 Z_392_0_0 + 0.00624118137893479 Z_392_0_1
   + 0.7917764283530691 Z_392_0_2 + 0.00753723420331924 Z_392_0_3 + [
   1.66924e-07 Z_404_0_0 * Z_392_0_0 + 1.66924e-07 Z_404_0_1 * Z_392_0_1
   + 1.66924e-07 Z_404_0_2 * Z_392_0_2 + 1.66924e-07 Z_404_0_3 * Z_392_0_3
   ] / 2 
Subject To
 constraint1_4040: Z_404_0_0 + Z_404_0_1 + Z_404_0_2 + Z_404_0_3 <= 1
 constraint1_3920: Z_392_0_0 + Z_392_0_1 + Z_392_0_2 + Z_392_0_3 <= 1
 constraint2_4040: Z_404_0_0 <= 1
 constraint2_4041: Z_404_0_1 <= 1
 constraint2_4042: Z_404_0_2 <= 1
 constraint2_4043: Z_404_0_3 <= 1
 constraint2_3920: Z_392_0_0 <= 1
 constraint2_3921: Z_392_0_1 <= 1
 constraint2_3922: Z_392_0_2 <= 1
 constraint2_3923: Z_392_0_3 <= 1
Bounds
Binaries
 Z_404_0_0 Z_404_0_1 Z_404_0_2 Z_404_0_3 Z_392_0_0 Z_392_0_1 Z_392_0_2
 Z_392_0_3
End
